(set-info :smt-lib-version 2.6)
(set-logic QF_LRA)
(set-info :source |
SAL benchmark suite.  Created at SRI by Bruno Dutertre, John Rushby, Maria
Sorea, and Leonardo de Moura.  Contact demoura@csl.sri.com for more
information.

This benchmark was automatically translated into SMT-LIB format from
CVC format using CVC Lite
|)
(set-info :category "industrial")
(set-info :status unsat)
(declare-fun x_0 () Bool)
(declare-fun x_1 () Bool)
(declare-fun x_2 () Bool)
(declare-fun x_3 () Bool)
(declare-fun x_4 () Bool)
(declare-fun x_5 () Bool)
(declare-fun x_6 () Real)
(declare-fun x_7 () Real)
(declare-fun x_8 () Real)
(declare-fun x_9 () Real)
(declare-fun x_10 () Real)
(declare-fun x_11 () Real)
(declare-fun x_12 () Real)
(declare-fun x_13 () Real)
(declare-fun x_14 () Real)
(declare-fun x_15 () Real)
(declare-fun x_16 () Real)
(declare-fun x_17 () Bool)
(declare-fun x_18 () Bool)
(declare-fun x_19 () Real)
(declare-fun x_20 () Bool)
(declare-fun x_21 () Bool)
(declare-fun x_22 () Bool)
(declare-fun x_23 () Bool)
(declare-fun x_24 () Bool)
(declare-fun x_25 () Bool)
(declare-fun x_26 () Bool)
(declare-fun x_27 () Real)
(declare-fun x_28 () Bool)
(declare-fun x_29 () Bool)
(declare-fun x_30 () Real)
(declare-fun x_31 () Real)
(declare-fun x_32 () Real)
(declare-fun x_33 () Bool)
(declare-fun x_34 () Bool)
(declare-fun x_35 () Real)
(declare-fun x_36 () Bool)
(declare-fun x_37 () Bool)
(declare-fun x_38 () Real)
(declare-fun x_39 () Real)
(declare-fun x_40 () Bool)
(declare-fun x_41 () Bool)
(declare-fun x_42 () Real)
(declare-fun x_43 () Bool)
(declare-fun x_44 () Bool)
(declare-fun x_45 () Bool)
(declare-fun x_46 () Bool)
(declare-fun x_47 () Bool)
(declare-fun x_48 () Bool)
(declare-fun x_49 () Real)
(declare-fun x_50 () Bool)
(declare-fun x_51 () Bool)
(declare-fun x_52 () Real)
(declare-fun x_53 () Real)
(declare-fun x_54 () Real)
(declare-fun x_55 () Real)
(declare-fun x_56 () Real)
(declare-fun x_57 () Real)
(declare-fun x_58 () Bool)
(declare-fun x_59 () Bool)
(declare-fun x_60 () Real)
(declare-fun x_61 () Bool)
(declare-fun x_62 () Bool)
(declare-fun x_63 () Bool)
(declare-fun x_64 () Bool)
(declare-fun x_65 () Bool)
(declare-fun x_66 () Bool)
(declare-fun x_67 () Real)
(declare-fun x_68 () Bool)
(declare-fun x_69 () Bool)
(declare-fun x_70 () Real)
(declare-fun x_71 () Real)
(declare-fun x_72 () Real)
(declare-fun x_73 () Real)
(declare-fun x_74 () Real)
(declare-fun x_75 () Real)
(declare-fun x_76 () Bool)
(declare-fun x_77 () Bool)
(declare-fun x_78 () Real)
(declare-fun x_79 () Bool)
(declare-fun x_80 () Bool)
(declare-fun x_81 () Bool)
(declare-fun x_82 () Bool)
(declare-fun x_83 () Bool)
(declare-fun x_84 () Bool)
(declare-fun x_85 () Real)
(declare-fun x_86 () Bool)
(declare-fun x_87 () Bool)
(declare-fun x_88 () Real)
(declare-fun x_89 () Real)
(declare-fun x_90 () Real)
(declare-fun x_91 () Real)
(declare-fun x_92 () Real)
(declare-fun x_93 () Real)
(declare-fun x_94 () Bool)
(declare-fun x_95 () Bool)
(declare-fun x_96 () Real)
(declare-fun x_97 () Bool)
(declare-fun x_98 () Bool)
(declare-fun x_99 () Bool)
(declare-fun x_100 () Bool)
(declare-fun x_101 () Bool)
(declare-fun x_102 () Bool)
(declare-fun x_103 () Real)
(declare-fun x_104 () Bool)
(declare-fun x_105 () Bool)
(declare-fun x_106 () Real)
(declare-fun x_107 () Real)
(declare-fun x_108 () Real)
(declare-fun x_109 () Real)
(declare-fun x_110 () Real)
(declare-fun x_111 () Real)
(declare-fun x_112 () Bool)
(declare-fun x_113 () Bool)
(declare-fun x_114 () Real)
(declare-fun x_115 () Bool)
(declare-fun x_116 () Bool)
(declare-fun x_117 () Bool)
(declare-fun x_118 () Bool)
(declare-fun x_119 () Bool)
(declare-fun x_120 () Bool)
(declare-fun x_121 () Real)
(declare-fun x_122 () Bool)
(declare-fun x_123 () Bool)
(declare-fun x_124 () Real)
(declare-fun x_125 () Real)
(declare-fun x_126 () Real)
(declare-fun x_127 () Real)
(declare-fun x_128 () Real)
(declare-fun x_129 () Real)
(declare-fun x_130 () Bool)
(declare-fun x_131 () Bool)
(declare-fun x_132 () Real)
(declare-fun x_133 () Bool)
(declare-fun x_134 () Bool)
(declare-fun x_135 () Bool)
(declare-fun x_136 () Bool)
(declare-fun x_137 () Bool)
(declare-fun x_138 () Bool)
(declare-fun x_139 () Real)
(declare-fun x_140 () Bool)
(declare-fun x_141 () Bool)
(declare-fun x_142 () Real)
(declare-fun x_143 () Real)
(declare-fun x_144 () Real)
(declare-fun x_145 () Real)
(declare-fun x_146 () Real)
(declare-fun x_147 () Real)
(declare-fun x_148 () Bool)
(declare-fun x_149 () Bool)
(declare-fun x_150 () Real)
(declare-fun x_151 () Bool)
(declare-fun x_152 () Bool)
(declare-fun x_153 () Bool)
(declare-fun x_154 () Bool)
(declare-fun x_155 () Bool)
(declare-fun x_156 () Bool)
(declare-fun x_157 () Real)
(declare-fun x_158 () Bool)
(declare-fun x_159 () Bool)
(declare-fun x_160 () Real)
(declare-fun x_161 () Real)
(declare-fun x_162 () Real)
(declare-fun x_163 () Real)
(declare-fun x_164 () Real)
(assert (let ((?v_32 (+ x_132 x_13)) (?v_23 (+ x_142 x_13)) (?v_26 (= x_147 x_129)) (?v_2 (not x_148))) (let ((?v_4 (and ?v_2 x_149)) (?v_31 (= x_150 x_132)) (?v_24 (and (= x_151 x_133) (= x_152 x_134))) (?v_9 (= x_143 1)) (?v_33 (and (= x_153 x_135) (= x_154 x_136))) (?v_12 (and (= x_155 x_137) (= x_156 x_138))) (?v_5 (= x_157 x_139)) (?v_14 (not x_158))) (let ((?v_16 (and ?v_14 x_159)) (?v_17 (= x_160 0)) (?v_21 (= x_160 x_142)) (?v_0 (= x_143 0)) (?v_11 (+ x_139 x_13)) (?v_28 (= x_150 0)) (?v_60 (+ x_114 x_12)) (?v_53 (+ x_124 x_12)) (?v_56 (= x_129 x_111)) (?v_36 (not x_130))) (let ((?v_38 (and ?v_36 x_131)) (?v_59 (= x_132 x_114)) (?v_54 (and (= x_133 x_115) (= x_134 x_116))) (?v_41 (= x_125 1)) (?v_61 (and (= x_135 x_117) (= x_136 x_118))) (?v_44 (and (= x_137 x_119) (= x_138 x_120))) (?v_39 (= x_139 x_121)) (?v_46 (not x_140))) (let ((?v_48 (and ?v_46 x_141)) (?v_49 (= x_142 0)) (?v_51 (= x_142 x_124)) (?v_34 (= x_125 0)) (?v_43 (+ x_121 x_12)) (?v_58 (= x_132 0)) (?v_88 (+ x_96 x_11)) (?v_81 (+ x_106 x_11)) (?v_84 (= x_111 x_93)) (?v_64 (not x_112))) (let ((?v_66 (and ?v_64 x_113)) (?v_87 (= x_114 x_96)) (?v_82 (and (= x_115 x_97) (= x_116 x_98))) (?v_69 (= x_107 1)) (?v_89 (and (= x_117 x_99) (= x_118 x_100))) (?v_72 (and (= x_119 x_101) (= x_120 x_102))) (?v_67 (= x_121 x_103)) (?v_74 (not x_122))) (let ((?v_76 (and ?v_74 x_123)) (?v_77 (= x_124 0)) (?v_79 (= x_124 x_106)) (?v_62 (= x_107 0)) (?v_71 (+ x_103 x_11)) (?v_86 (= x_114 0)) (?v_116 (+ x_78 x_10)) (?v_109 (+ x_88 x_10)) (?v_112 (= x_93 x_75)) (?v_92 (not x_94))) (let ((?v_94 (and ?v_92 x_95)) (?v_115 (= x_96 x_78)) (?v_110 (and (= x_97 x_79) (= x_98 x_80))) (?v_97 (= x_89 1)) (?v_117 (and (= x_99 x_81) (= x_100 x_82))) (?v_100 (and (= x_101 x_83) (= x_102 x_84))) (?v_95 (= x_103 x_85)) (?v_102 (not x_104))) (let ((?v_104 (and ?v_102 x_105)) (?v_105 (= x_106 0)) (?v_107 (= x_106 x_88)) (?v_90 (= x_89 0)) (?v_99 (+ x_85 x_10)) (?v_114 (= x_96 0)) (?v_144 (+ x_60 x_9)) (?v_137 (+ x_70 x_9)) (?v_140 (= x_75 x_57)) (?v_120 (not x_76))) (let ((?v_122 (and ?v_120 x_77)) (?v_143 (= x_78 x_60)) (?v_138 (and (= x_79 x_61) (= x_80 x_62))) (?v_125 (= x_71 1)) (?v_145 (and (= x_81 x_63) (= x_82 x_64))) (?v_128 (and (= x_83 x_65) (= x_84 x_66))) (?v_123 (= x_85 x_67)) (?v_130 (not x_86))) (let ((?v_132 (and ?v_130 x_87)) (?v_133 (= x_88 0)) (?v_135 (= x_88 x_70)) (?v_118 (= x_71 0)) (?v_127 (+ x_67 x_9)) (?v_142 (= x_78 0)) (?v_172 (+ x_42 x_8)) (?v_165 (+ x_52 x_8)) (?v_168 (= x_57 x_39)) (?v_148 (not x_58))) (let ((?v_150 (and ?v_148 x_59)) (?v_171 (= x_60 x_42)) (?v_166 (and (= x_61 x_43) (= x_62 x_44))) (?v_153 (= x_53 1)) (?v_173 (and (= x_63 x_45) (= x_64 x_46))) (?v_156 (and (= x_65 x_47) (= x_66 x_48))) (?v_151 (= x_67 x_49)) (?v_158 (not x_68))) (let ((?v_160 (and ?v_158 x_69)) (?v_161 (= x_70 0)) (?v_163 (= x_70 x_52)) (?v_146 (= x_53 0)) (?v_155 (+ x_49 x_8)) (?v_170 (= x_60 0)) (?v_200 (+ x_19 x_7)) (?v_193 (+ x_30 x_7)) (?v_196 (= x_39 x_15)) (?v_176 (not x_40))) (let ((?v_178 (and ?v_176 x_41)) (?v_199 (= x_42 x_19)) (?v_194 (and (= x_43 x_20) (= x_44 x_21))) (?v_181 (= x_31 1)) (?v_201 (and (= x_45 x_23) (= x_46 x_24))) (?v_184 (and (= x_47 x_25) (= x_48 x_26))) (?v_179 (= x_49 x_27)) (?v_186 (not x_50))) (let ((?v_188 (and ?v_186 x_51)) (?v_189 (= x_52 0)) (?v_191 (= x_52 x_30)) (?v_174 (= x_31 0)) (?v_183 (+ x_27 x_7)) (?v_198 (= x_42 0)) (?v_210 (+ 0 x_6)) (?v_222 (= x_15 x_16)) (?v_205 (not x_17))) (let ((?v_207 (and ?v_205 x_18)) (?v_223 (= x_19 0)) (?v_219 (and (= x_20 x_2) (= x_21 x_3))) (?v_224 (and (= x_23 x_4) (= x_24 x_5))) (?v_211 (and (= x_25 x_0) (= x_26 x_1))) (?v_206 (= x_27 0)) (?v_214 (not x_28))) (let ((?v_216 (and ?v_214 x_29)) (?v_215 (= x_30 0)) (?v_204 (not x_22)) (?v_202 (not x_0)) (?v_203 (not x_1)) (?v_212 (not x_2)) (?v_213 (not x_3)) (?v_220 (not x_4)) (?v_221 (not x_5)) (?v_3 (not x_137)) (?v_1 (not x_138)) (?v_6 (not x_149)) (?v_8 (not x_156)) (?v_7 (not x_155)) (?v_15 (not x_133)) (?v_13 (not x_134)) (?v_20 (not x_152)) (?v_18 (not x_159)) (?v_19 (not x_151)) (?v_27 (not x_135)) (?v_25 (not x_136)) (?v_30 (not x_154)) (?v_29 (not x_153)) (?v_37 (not x_119)) (?v_35 (not x_120)) (?v_40 (not x_131)) (?v_47 (not x_115)) (?v_45 (not x_116)) (?v_50 (not x_141)) (?v_57 (not x_117)) (?v_55 (not x_118)) (?v_65 (not x_101)) (?v_63 (not x_102)) (?v_68 (not x_113)) (?v_75 (not x_97)) (?v_73 (not x_98)) (?v_78 (not x_123)) (?v_85 (not x_99)) (?v_83 (not x_100)) (?v_93 (not x_83)) (?v_91 (not x_84)) (?v_96 (not x_95)) (?v_103 (not x_79)) (?v_101 (not x_80)) (?v_106 (not x_105)) (?v_113 (not x_81)) (?v_111 (not x_82)) (?v_121 (not x_65)) (?v_119 (not x_66)) (?v_124 (not x_77)) (?v_131 (not x_61)) (?v_129 (not x_62)) (?v_134 (not x_87)) (?v_141 (not x_63)) (?v_139 (not x_64)) (?v_149 (not x_47)) (?v_147 (not x_48)) (?v_152 (not x_59)) (?v_159 (not x_43)) (?v_157 (not x_44)) (?v_162 (not x_69)) (?v_169 (not x_45)) (?v_167 (not x_46)) (?v_177 (not x_25)) (?v_175 (not x_26)) (?v_180 (not x_41)) (?v_187 (not x_20)) (?v_185 (not x_21)) (?v_190 (not x_51)) (?v_197 (not x_23)) (?v_195 (not x_24)) (?v_208 (not x_18)) (?v_217 (not x_29)) (?v_10 (<= ?v_11 5)) (?v_22 (<= ?v_23 1)) (?v_42 (<= ?v_43 5)) (?v_52 (<= ?v_53 1)) (?v_70 (<= ?v_71 5)) (?v_80 (<= ?v_81 1)) (?v_98 (<= ?v_99 5)) (?v_108 (<= ?v_109 1)) (?v_126 (<= ?v_127 5)) (?v_136 (<= ?v_137 1)) (?v_154 (<= ?v_155 5)) (?v_164 (<= ?v_165 1)) (?v_182 (<= ?v_183 5)) (?v_192 (<= ?v_193 1)) (?v_209 (<= ?v_210 5)) (?v_218 (<= ?v_210 1))) (and (and (and (and (and (and (and (and (and (and (and (and (and (and (and (and (and (and (and (and (and (and (and (and (and (and (and (and (and (and (and (and (and (and (and (and (and (and (and (and (and (and (and (and (and (and (and (and (and (and (and (and (and (and (and (and (and (and (and (and (and (and (and (and (and (and (and (and (and (and (and (and (and (and (and (and (and (and (<= x_161 1) (>= x_161 0)) (<= x_143 1)) (>= x_143 0)) (<= x_125 1)) (>= x_125 0)) (<= x_107 1)) (>= x_107 0)) (<= x_89 1)) (>= x_89 0)) (<= x_71 1)) (>= x_71 0)) (<= x_53 1)) (>= x_53 0)) (<= x_31 1)) (>= x_31 0)) (and ?v_202 ?v_203)) (and ?v_212 ?v_213)) (and ?v_220 ?v_221)) (not (< x_14 0))) (not (< x_13 0))) (not (< x_12 0))) (not (< x_11 0))) (not (< x_10 0))) (not (< x_9 0))) (not (< x_8 0))) (not (< x_7 0))) (not (< x_6 0))) (= x_161 (ite ?v_9 0 1))) (or (or (or (or (or (and (and (and (and (and (and (and (and (= x_162 0) ?v_0) ?v_3) ?v_1) ?v_2) ?v_6) x_155) ?v_8) (= x_157 0)) (and (and (and (and (and (and (and (and (= x_162 1) ?v_0) x_137) ?v_1) (not (<= x_139 2))) ?v_4) ?v_7) x_156) ?v_5)) (and (and (and (and (and (and (and (= x_162 2) ?v_0) ?v_3) x_138) ?v_4) x_155) x_156) ?v_5)) (and (and (and (and (and (and (and (and (= x_162 3) ?v_0) x_137) x_138) x_148) ?v_6) ?v_7) ?v_8) ?v_5)) (and (and (and (and (and (and (and (and (= x_162 4) ?v_9) (or (or ?v_3 x_138) ?v_10)) (or (or x_137 ?v_1) ?v_10)) (or (or ?v_3 ?v_1) ?v_10)) (= x_157 ?v_11)) (= x_148 x_130)) (= x_149 x_131)) ?v_12)) (and (and (and (and (= x_162 5) ?v_0) ?v_5) ?v_4) ?v_12))) (or (or (or (or (or (and (and (and (and (and (and (and (and (and (= x_163 0) ?v_0) ?v_15) ?v_13) ?v_2) ?v_6) ?v_16) x_151) ?v_20) ?v_17) (and (and (and (and (and (and (and (and (and (= x_163 1) ?v_0) x_133) ?v_13) (= x_142 1)) ?v_14) ?v_18) ?v_19) x_152) ?v_21)) (and (and (and (and (and (and (and (and (and (= x_163 2) ?v_0) ?v_15) x_134) x_148) ?v_6) ?v_16) x_151) x_152) ?v_17)) (and (and (and (and (and (and (and (and (= x_163 3) ?v_0) x_133) x_134) x_158) ?v_18) ?v_19) ?v_20) ?v_21)) (and (and (and (and (and (and (and (= x_163 4) ?v_9) (or (or ?v_15 x_134) ?v_22)) (or (or ?v_15 ?v_13) ?v_22)) (= x_160 ?v_23)) (= x_158 x_140)) (= x_159 x_141)) ?v_24)) (and (and (and (and (and (and (= x_163 5) ?v_0) ?v_2) x_149) ?v_21) ?v_16) ?v_24))) (or (or (or (or (or (and (and (and (and (and (and (and (and (and (= x_164 0) ?v_0) ?v_27) ?v_25) ?v_14) ?v_18) x_153) ?v_30) ?v_28) ?v_26) (and (and (and (and (and (and (and (= x_164 1) ?v_0) x_135) ?v_25) ?v_29) x_154) ?v_26) ?v_31)) (and (and (and (and (and (and (and (and (and (= x_164 2) ?v_0) ?v_27) x_136) x_158) ?v_18) x_153) x_154) ?v_28) ?v_26)) (and (and (and (and (and (and (and (and (= x_164 3) ?v_0) x_135) x_136) (not (< x_132 1))) ?v_29) ?v_30) ?v_26) ?v_31)) (and (and (and (and (and (and (= x_164 4) ?v_9) (or (or ?v_27 x_136) (<= ?v_32 1))) (or (or ?v_27 ?v_25) (<= ?v_32 2))) (= x_150 ?v_32)) ?v_33) ?v_26)) (and (and (and (and (and (and (= x_164 5) ?v_0) ?v_14) x_159) ?v_31) ?v_33) ?v_26))) (= x_143 (ite ?v_41 0 1))) (or (or (or (or (or (and (and (and (and (and (and (and (and (= x_144 0) ?v_34) ?v_37) ?v_35) ?v_36) ?v_40) x_137) ?v_1) (= x_139 0)) (and (and (and (and (and (and (and (and (= x_144 1) ?v_34) x_119) ?v_35) (not (<= x_121 2))) ?v_38) ?v_3) x_138) ?v_39)) (and (and (and (and (and (and (and (= x_144 2) ?v_34) ?v_37) x_120) ?v_38) x_137) x_138) ?v_39)) (and (and (and (and (and (and (and (and (= x_144 3) ?v_34) x_119) x_120) x_130) ?v_40) ?v_3) ?v_1) ?v_39)) (and (and (and (and (and (and (and (and (= x_144 4) ?v_41) (or (or ?v_37 x_120) ?v_42)) (or (or x_119 ?v_35) ?v_42)) (or (or ?v_37 ?v_35) ?v_42)) (= x_139 ?v_43)) (= x_130 x_112)) (= x_131 x_113)) ?v_44)) (and (and (and (and (= x_144 5) ?v_34) ?v_39) ?v_38) ?v_44))) (or (or (or (or (or (and (and (and (and (and (and (and (and (and (= x_145 0) ?v_34) ?v_47) ?v_45) ?v_36) ?v_40) ?v_48) x_133) ?v_13) ?v_49) (and (and (and (and (and (and (and (and (and (= x_145 1) ?v_34) x_115) ?v_45) (= x_124 1)) ?v_46) ?v_50) ?v_15) x_134) ?v_51)) (and (and (and (and (and (and (and (and (and (= x_145 2) ?v_34) ?v_47) x_116) x_130) ?v_40) ?v_48) x_133) x_134) ?v_49)) (and (and (and (and (and (and (and (and (= x_145 3) ?v_34) x_115) x_116) x_140) ?v_50) ?v_15) ?v_13) ?v_51)) (and (and (and (and (and (and (and (= x_145 4) ?v_41) (or (or ?v_47 x_116) ?v_52)) (or (or ?v_47 ?v_45) ?v_52)) (= x_142 ?v_53)) (= x_140 x_122)) (= x_141 x_123)) ?v_54)) (and (and (and (and (and (and (= x_145 5) ?v_34) ?v_36) x_131) ?v_51) ?v_48) ?v_54))) (or (or (or (or (or (and (and (and (and (and (and (and (and (and (= x_146 0) ?v_34) ?v_57) ?v_55) ?v_46) ?v_50) x_135) ?v_25) ?v_58) ?v_56) (and (and (and (and (and (and (and (= x_146 1) ?v_34) x_117) ?v_55) ?v_27) x_136) ?v_56) ?v_59)) (and (and (and (and (and (and (and (and (and (= x_146 2) ?v_34) ?v_57) x_118) x_140) ?v_50) x_135) x_136) ?v_58) ?v_56)) (and (and (and (and (and (and (and (and (= x_146 3) ?v_34) x_117) x_118) (not (< x_114 1))) ?v_27) ?v_25) ?v_56) ?v_59)) (and (and (and (and (and (and (= x_146 4) ?v_41) (or (or ?v_57 x_118) (<= ?v_60 1))) (or (or ?v_57 ?v_55) (<= ?v_60 2))) (= x_132 ?v_60)) ?v_61) ?v_56)) (and (and (and (and (and (and (= x_146 5) ?v_34) ?v_46) x_141) ?v_59) ?v_61) ?v_56))) (= x_125 (ite ?v_69 0 1))) (or (or (or (or (or (and (and (and (and (and (and (and (and (= x_126 0) ?v_62) ?v_65) ?v_63) ?v_64) ?v_68) x_119) ?v_35) (= x_121 0)) (and (and (and (and (and (and (and (and (= x_126 1) ?v_62) x_101) ?v_63) (not (<= x_103 2))) ?v_66) ?v_37) x_120) ?v_67)) (and (and (and (and (and (and (and (= x_126 2) ?v_62) ?v_65) x_102) ?v_66) x_119) x_120) ?v_67)) (and (and (and (and (and (and (and (and (= x_126 3) ?v_62) x_101) x_102) x_112) ?v_68) ?v_37) ?v_35) ?v_67)) (and (and (and (and (and (and (and (and (= x_126 4) ?v_69) (or (or ?v_65 x_102) ?v_70)) (or (or x_101 ?v_63) ?v_70)) (or (or ?v_65 ?v_63) ?v_70)) (= x_121 ?v_71)) (= x_112 x_94)) (= x_113 x_95)) ?v_72)) (and (and (and (and (= x_126 5) ?v_62) ?v_67) ?v_66) ?v_72))) (or (or (or (or (or (and (and (and (and (and (and (and (and (and (= x_127 0) ?v_62) ?v_75) ?v_73) ?v_64) ?v_68) ?v_76) x_115) ?v_45) ?v_77) (and (and (and (and (and (and (and (and (and (= x_127 1) ?v_62) x_97) ?v_73) (= x_106 1)) ?v_74) ?v_78) ?v_47) x_116) ?v_79)) (and (and (and (and (and (and (and (and (and (= x_127 2) ?v_62) ?v_75) x_98) x_112) ?v_68) ?v_76) x_115) x_116) ?v_77)) (and (and (and (and (and (and (and (and (= x_127 3) ?v_62) x_97) x_98) x_122) ?v_78) ?v_47) ?v_45) ?v_79)) (and (and (and (and (and (and (and (= x_127 4) ?v_69) (or (or ?v_75 x_98) ?v_80)) (or (or ?v_75 ?v_73) ?v_80)) (= x_124 ?v_81)) (= x_122 x_104)) (= x_123 x_105)) ?v_82)) (and (and (and (and (and (and (= x_127 5) ?v_62) ?v_64) x_113) ?v_79) ?v_76) ?v_82))) (or (or (or (or (or (and (and (and (and (and (and (and (and (and (= x_128 0) ?v_62) ?v_85) ?v_83) ?v_74) ?v_78) x_117) ?v_55) ?v_86) ?v_84) (and (and (and (and (and (and (and (= x_128 1) ?v_62) x_99) ?v_83) ?v_57) x_118) ?v_84) ?v_87)) (and (and (and (and (and (and (and (and (and (= x_128 2) ?v_62) ?v_85) x_100) x_122) ?v_78) x_117) x_118) ?v_86) ?v_84)) (and (and (and (and (and (and (and (and (= x_128 3) ?v_62) x_99) x_100) (not (< x_96 1))) ?v_57) ?v_55) ?v_84) ?v_87)) (and (and (and (and (and (and (= x_128 4) ?v_69) (or (or ?v_85 x_100) (<= ?v_88 1))) (or (or ?v_85 ?v_83) (<= ?v_88 2))) (= x_114 ?v_88)) ?v_89) ?v_84)) (and (and (and (and (and (and (= x_128 5) ?v_62) ?v_74) x_123) ?v_87) ?v_89) ?v_84))) (= x_107 (ite ?v_97 0 1))) (or (or (or (or (or (and (and (and (and (and (and (and (and (= x_108 0) ?v_90) ?v_93) ?v_91) ?v_92) ?v_96) x_101) ?v_63) (= x_103 0)) (and (and (and (and (and (and (and (and (= x_108 1) ?v_90) x_83) ?v_91) (not (<= x_85 2))) ?v_94) ?v_65) x_102) ?v_95)) (and (and (and (and (and (and (and (= x_108 2) ?v_90) ?v_93) x_84) ?v_94) x_101) x_102) ?v_95)) (and (and (and (and (and (and (and (and (= x_108 3) ?v_90) x_83) x_84) x_94) ?v_96) ?v_65) ?v_63) ?v_95)) (and (and (and (and (and (and (and (and (= x_108 4) ?v_97) (or (or ?v_93 x_84) ?v_98)) (or (or x_83 ?v_91) ?v_98)) (or (or ?v_93 ?v_91) ?v_98)) (= x_103 ?v_99)) (= x_94 x_76)) (= x_95 x_77)) ?v_100)) (and (and (and (and (= x_108 5) ?v_90) ?v_95) ?v_94) ?v_100))) (or (or (or (or (or (and (and (and (and (and (and (and (and (and (= x_109 0) ?v_90) ?v_103) ?v_101) ?v_92) ?v_96) ?v_104) x_97) ?v_73) ?v_105) (and (and (and (and (and (and (and (and (and (= x_109 1) ?v_90) x_79) ?v_101) (= x_88 1)) ?v_102) ?v_106) ?v_75) x_98) ?v_107)) (and (and (and (and (and (and (and (and (and (= x_109 2) ?v_90) ?v_103) x_80) x_94) ?v_96) ?v_104) x_97) x_98) ?v_105)) (and (and (and (and (and (and (and (and (= x_109 3) ?v_90) x_79) x_80) x_104) ?v_106) ?v_75) ?v_73) ?v_107)) (and (and (and (and (and (and (and (= x_109 4) ?v_97) (or (or ?v_103 x_80) ?v_108)) (or (or ?v_103 ?v_101) ?v_108)) (= x_106 ?v_109)) (= x_104 x_86)) (= x_105 x_87)) ?v_110)) (and (and (and (and (and (and (= x_109 5) ?v_90) ?v_92) x_95) ?v_107) ?v_104) ?v_110))) (or (or (or (or (or (and (and (and (and (and (and (and (and (and (= x_110 0) ?v_90) ?v_113) ?v_111) ?v_102) ?v_106) x_99) ?v_83) ?v_114) ?v_112) (and (and (and (and (and (and (and (= x_110 1) ?v_90) x_81) ?v_111) ?v_85) x_100) ?v_112) ?v_115)) (and (and (and (and (and (and (and (and (and (= x_110 2) ?v_90) ?v_113) x_82) x_104) ?v_106) x_99) x_100) ?v_114) ?v_112)) (and (and (and (and (and (and (and (and (= x_110 3) ?v_90) x_81) x_82) (not (< x_78 1))) ?v_85) ?v_83) ?v_112) ?v_115)) (and (and (and (and (and (and (= x_110 4) ?v_97) (or (or ?v_113 x_82) (<= ?v_116 1))) (or (or ?v_113 ?v_111) (<= ?v_116 2))) (= x_96 ?v_116)) ?v_117) ?v_112)) (and (and (and (and (and (and (= x_110 5) ?v_90) ?v_102) x_105) ?v_115) ?v_117) ?v_112))) (= x_89 (ite ?v_125 0 1))) (or (or (or (or (or (and (and (and (and (and (and (and (and (= x_90 0) ?v_118) ?v_121) ?v_119) ?v_120) ?v_124) x_83) ?v_91) (= x_85 0)) (and (and (and (and (and (and (and (and (= x_90 1) ?v_118) x_65) ?v_119) (not (<= x_67 2))) ?v_122) ?v_93) x_84) ?v_123)) (and (and (and (and (and (and (and (= x_90 2) ?v_118) ?v_121) x_66) ?v_122) x_83) x_84) ?v_123)) (and (and (and (and (and (and (and (and (= x_90 3) ?v_118) x_65) x_66) x_76) ?v_124) ?v_93) ?v_91) ?v_123)) (and (and (and (and (and (and (and (and (= x_90 4) ?v_125) (or (or ?v_121 x_66) ?v_126)) (or (or x_65 ?v_119) ?v_126)) (or (or ?v_121 ?v_119) ?v_126)) (= x_85 ?v_127)) (= x_76 x_58)) (= x_77 x_59)) ?v_128)) (and (and (and (and (= x_90 5) ?v_118) ?v_123) ?v_122) ?v_128))) (or (or (or (or (or (and (and (and (and (and (and (and (and (and (= x_91 0) ?v_118) ?v_131) ?v_129) ?v_120) ?v_124) ?v_132) x_79) ?v_101) ?v_133) (and (and (and (and (and (and (and (and (and (= x_91 1) ?v_118) x_61) ?v_129) (= x_70 1)) ?v_130) ?v_134) ?v_103) x_80) ?v_135)) (and (and (and (and (and (and (and (and (and (= x_91 2) ?v_118) ?v_131) x_62) x_76) ?v_124) ?v_132) x_79) x_80) ?v_133)) (and (and (and (and (and (and (and (and (= x_91 3) ?v_118) x_61) x_62) x_86) ?v_134) ?v_103) ?v_101) ?v_135)) (and (and (and (and (and (and (and (= x_91 4) ?v_125) (or (or ?v_131 x_62) ?v_136)) (or (or ?v_131 ?v_129) ?v_136)) (= x_88 ?v_137)) (= x_86 x_68)) (= x_87 x_69)) ?v_138)) (and (and (and (and (and (and (= x_91 5) ?v_118) ?v_120) x_77) ?v_135) ?v_132) ?v_138))) (or (or (or (or (or (and (and (and (and (and (and (and (and (and (= x_92 0) ?v_118) ?v_141) ?v_139) ?v_130) ?v_134) x_81) ?v_111) ?v_142) ?v_140) (and (and (and (and (and (and (and (= x_92 1) ?v_118) x_63) ?v_139) ?v_113) x_82) ?v_140) ?v_143)) (and (and (and (and (and (and (and (and (and (= x_92 2) ?v_118) ?v_141) x_64) x_86) ?v_134) x_81) x_82) ?v_142) ?v_140)) (and (and (and (and (and (and (and (and (= x_92 3) ?v_118) x_63) x_64) (not (< x_60 1))) ?v_113) ?v_111) ?v_140) ?v_143)) (and (and (and (and (and (and (= x_92 4) ?v_125) (or (or ?v_141 x_64) (<= ?v_144 1))) (or (or ?v_141 ?v_139) (<= ?v_144 2))) (= x_78 ?v_144)) ?v_145) ?v_140)) (and (and (and (and (and (and (= x_92 5) ?v_118) ?v_130) x_87) ?v_143) ?v_145) ?v_140))) (= x_71 (ite ?v_153 0 1))) (or (or (or (or (or (and (and (and (and (and (and (and (and (= x_72 0) ?v_146) ?v_149) ?v_147) ?v_148) ?v_152) x_65) ?v_119) (= x_67 0)) (and (and (and (and (and (and (and (and (= x_72 1) ?v_146) x_47) ?v_147) (not (<= x_49 2))) ?v_150) ?v_121) x_66) ?v_151)) (and (and (and (and (and (and (and (= x_72 2) ?v_146) ?v_149) x_48) ?v_150) x_65) x_66) ?v_151)) (and (and (and (and (and (and (and (and (= x_72 3) ?v_146) x_47) x_48) x_58) ?v_152) ?v_121) ?v_119) ?v_151)) (and (and (and (and (and (and (and (and (= x_72 4) ?v_153) (or (or ?v_149 x_48) ?v_154)) (or (or x_47 ?v_147) ?v_154)) (or (or ?v_149 ?v_147) ?v_154)) (= x_67 ?v_155)) (= x_58 x_40)) (= x_59 x_41)) ?v_156)) (and (and (and (and (= x_72 5) ?v_146) ?v_151) ?v_150) ?v_156))) (or (or (or (or (or (and (and (and (and (and (and (and (and (and (= x_73 0) ?v_146) ?v_159) ?v_157) ?v_148) ?v_152) ?v_160) x_61) ?v_129) ?v_161) (and (and (and (and (and (and (and (and (and (= x_73 1) ?v_146) x_43) ?v_157) (= x_52 1)) ?v_158) ?v_162) ?v_131) x_62) ?v_163)) (and (and (and (and (and (and (and (and (and (= x_73 2) ?v_146) ?v_159) x_44) x_58) ?v_152) ?v_160) x_61) x_62) ?v_161)) (and (and (and (and (and (and (and (and (= x_73 3) ?v_146) x_43) x_44) x_68) ?v_162) ?v_131) ?v_129) ?v_163)) (and (and (and (and (and (and (and (= x_73 4) ?v_153) (or (or ?v_159 x_44) ?v_164)) (or (or ?v_159 ?v_157) ?v_164)) (= x_70 ?v_165)) (= x_68 x_50)) (= x_69 x_51)) ?v_166)) (and (and (and (and (and (and (= x_73 5) ?v_146) ?v_148) x_59) ?v_163) ?v_160) ?v_166))) (or (or (or (or (or (and (and (and (and (and (and (and (and (and (= x_74 0) ?v_146) ?v_169) ?v_167) ?v_158) ?v_162) x_63) ?v_139) ?v_170) ?v_168) (and (and (and (and (and (and (and (= x_74 1) ?v_146) x_45) ?v_167) ?v_141) x_64) ?v_168) ?v_171)) (and (and (and (and (and (and (and (and (and (= x_74 2) ?v_146) ?v_169) x_46) x_68) ?v_162) x_63) x_64) ?v_170) ?v_168)) (and (and (and (and (and (and (and (and (= x_74 3) ?v_146) x_45) x_46) (not (< x_42 1))) ?v_141) ?v_139) ?v_168) ?v_171)) (and (and (and (and (and (and (= x_74 4) ?v_153) (or (or ?v_169 x_46) (<= ?v_172 1))) (or (or ?v_169 ?v_167) (<= ?v_172 2))) (= x_60 ?v_172)) ?v_173) ?v_168)) (and (and (and (and (and (and (= x_74 5) ?v_146) ?v_158) x_69) ?v_171) ?v_173) ?v_168))) (= x_53 (ite ?v_181 0 1))) (or (or (or (or (or (and (and (and (and (and (and (and (and (= x_54 0) ?v_174) ?v_177) ?v_175) ?v_176) ?v_180) x_47) ?v_147) (= x_49 0)) (and (and (and (and (and (and (and (and (= x_54 1) ?v_174) x_25) ?v_175) (not (<= x_27 2))) ?v_178) ?v_149) x_48) ?v_179)) (and (and (and (and (and (and (and (= x_54 2) ?v_174) ?v_177) x_26) ?v_178) x_47) x_48) ?v_179)) (and (and (and (and (and (and (and (and (= x_54 3) ?v_174) x_25) x_26) x_40) ?v_180) ?v_149) ?v_147) ?v_179)) (and (and (and (and (and (and (and (and (= x_54 4) ?v_181) (or (or ?v_177 x_26) ?v_182)) (or (or x_25 ?v_175) ?v_182)) (or (or ?v_177 ?v_175) ?v_182)) (= x_49 ?v_183)) (= x_40 x_17)) (= x_41 x_18)) ?v_184)) (and (and (and (and (= x_54 5) ?v_174) ?v_179) ?v_178) ?v_184))) (or (or (or (or (or (and (and (and (and (and (and (and (and (and (= x_55 0) ?v_174) ?v_187) ?v_185) ?v_176) ?v_180) ?v_188) x_43) ?v_157) ?v_189) (and (and (and (and (and (and (and (and (and (= x_55 1) ?v_174) x_20) ?v_185) (= x_30 1)) ?v_186) ?v_190) ?v_159) x_44) ?v_191)) (and (and (and (and (and (and (and (and (and (= x_55 2) ?v_174) ?v_187) x_21) x_40) ?v_180) ?v_188) x_43) x_44) ?v_189)) (and (and (and (and (and (and (and (and (= x_55 3) ?v_174) x_20) x_21) x_50) ?v_190) ?v_159) ?v_157) ?v_191)) (and (and (and (and (and (and (and (= x_55 4) ?v_181) (or (or ?v_187 x_21) ?v_192)) (or (or ?v_187 ?v_185) ?v_192)) (= x_52 ?v_193)) (= x_50 x_28)) (= x_51 x_29)) ?v_194)) (and (and (and (and (and (and (= x_55 5) ?v_174) ?v_176) x_41) ?v_191) ?v_188) ?v_194))) (or (or (or (or (or (and (and (and (and (and (and (and (and (and (= x_56 0) ?v_174) ?v_197) ?v_195) ?v_186) ?v_190) x_45) ?v_167) ?v_198) ?v_196) (and (and (and (and (and (and (and (= x_56 1) ?v_174) x_23) ?v_195) ?v_169) x_46) ?v_196) ?v_199)) (and (and (and (and (and (and (and (and (and (= x_56 2) ?v_174) ?v_197) x_24) x_50) ?v_190) x_45) x_46) ?v_198) ?v_196)) (and (and (and (and (and (and (and (and (= x_56 3) ?v_174) x_23) x_24) (not (< x_19 1))) ?v_169) ?v_167) ?v_196) ?v_199)) (and (and (and (and (and (and (= x_56 4) ?v_181) (or (or ?v_197 x_24) (<= ?v_200 1))) (or (or ?v_197 ?v_195) (<= ?v_200 2))) (= x_42 ?v_200)) ?v_201) ?v_196)) (and (and (and (and (and (and (= x_56 5) ?v_174) ?v_186) x_51) ?v_199) ?v_201) ?v_196))) (= x_31 (ite x_22 0 1))) (or (or (or (or (or (and (and (and (and (and (and (and (and (= x_32 0) ?v_204) ?v_202) ?v_203) ?v_205) ?v_208) x_25) ?v_175) ?v_206) (and (and (and (and (and (and (and (and (= x_32 1) ?v_204) x_0) ?v_203) (not (<= 0 2))) ?v_207) ?v_177) x_26) ?v_206)) (and (and (and (and (and (and (and (= x_32 2) ?v_204) ?v_202) x_1) ?v_207) x_25) x_26) ?v_206)) (and (and (and (and (and (and (and (and (= x_32 3) ?v_204) x_0) x_1) x_17) ?v_208) ?v_177) ?v_175) ?v_206)) (and (and (and (and (and (and (and (and (= x_32 4) x_22) (or (or ?v_202 x_1) ?v_209)) (or (or x_0 ?v_203) ?v_209)) (or (or ?v_202 ?v_203) ?v_209)) (= x_27 ?v_210)) (= x_17 x_33)) (= x_18 x_34)) ?v_211)) (and (and (and (and (= x_32 5) ?v_204) ?v_206) ?v_207) ?v_211))) (or (or (or (or (or (and (and (and (and (and (and (and (and (and (= x_35 0) ?v_204) ?v_212) ?v_213) ?v_205) ?v_208) ?v_216) x_20) ?v_185) ?v_215) (and (and (and (and (and (and (and (and (and (= x_35 1) ?v_204) x_2) ?v_213) (= 0 1)) ?v_214) ?v_217) ?v_187) x_21) ?v_215)) (and (and (and (and (and (and (and (and (and (= x_35 2) ?v_204) ?v_212) x_3) x_17) ?v_208) ?v_216) x_20) x_21) ?v_215)) (and (and (and (and (and (and (and (and (= x_35 3) ?v_204) x_2) x_3) x_28) ?v_217) ?v_187) ?v_185) ?v_215)) (and (and (and (and (and (and (and (= x_35 4) x_22) (or (or ?v_212 x_3) ?v_218)) (or (or ?v_212 ?v_213) ?v_218)) (= x_30 ?v_210)) (= x_28 x_36)) (= x_29 x_37)) ?v_219)) (and (and (and (and (and (and (= x_35 5) ?v_204) ?v_205) x_18) ?v_215) ?v_216) ?v_219))) (or (or (or (or (or (and (and (and (and (and (and (and (and (and (= x_38 0) ?v_204) ?v_220) ?v_221) ?v_214) ?v_217) x_23) ?v_195) ?v_223) ?v_222) (and (and (and (and (and (and (and (= x_38 1) ?v_204) x_4) ?v_221) ?v_197) x_24) ?v_222) ?v_223)) (and (and (and (and (and (and (and (and (and (= x_38 2) ?v_204) ?v_220) x_5) x_28) ?v_217) x_23) x_24) ?v_223) ?v_222)) (and (and (and (and (and (and (and (and (= x_38 3) ?v_204) x_4) x_5) (not (< 0 1))) ?v_197) ?v_195) ?v_222) ?v_223)) (and (and (and (and (and (and (= x_38 4) x_22) (or (or ?v_220 x_5) ?v_218)) (or (or ?v_220 ?v_221) (<= ?v_210 2))) (= x_19 ?v_210)) ?v_224) ?v_222)) (and (and (and (and (and (and (= x_38 5) ?v_204) ?v_214) x_29) ?v_223) ?v_224) ?v_222))) (or (or (or (or (or (or (or (or (and (and ?v_7 x_156) (or x_153 ?v_30)) (and (and ?v_3 x_138) (or x_135 ?v_25))) (and (and ?v_37 x_120) (or x_117 ?v_55))) (and (and ?v_65 x_102) (or x_99 ?v_83))) (and (and ?v_93 x_84) (or x_81 ?v_111))) (and (and ?v_121 x_66) (or x_63 ?v_139))) (and (and ?v_149 x_48) (or x_45 ?v_167))) (and (and ?v_177 x_26) (or x_23 ?v_195))) (and (and ?v_202 x_1) (or x_4 ?v_221)))) (or ?v_208 ?v_205)) (or ?v_217 ?v_214)) (or (not x_34) (not x_33))) (or (not x_37) (not x_36))) (or ?v_180 ?v_176)) (or ?v_190 ?v_186)) (or ?v_152 ?v_148)) (or ?v_162 ?v_158)) (or ?v_124 ?v_120)) (or ?v_134 ?v_130)) (or ?v_96 ?v_92)) (or ?v_106 ?v_102)) (or ?v_68 ?v_64)) (or ?v_78 ?v_74)) (or ?v_40 ?v_36)) (or ?v_50 ?v_46)) (or ?v_6 ?v_2)) (or ?v_18 ?v_14))))))))))))))))))))
(check-sat)
(exit)
